NAME = SAfile175,
TOURSIZE = 175,
LENGTH = 21519,
123,102,144,80,32,157,172,81,71,91,134,41,36,132,99,21,138,52,115,43,20,109,96,145,174,4,162,78,34,130,143,54,95,63,141,152,88,111,56,30,3,142,60,175,124,86,76,158,90,94,135,121,107,51,106,55,129,125,8,155,57,14,150,147,169,28,168,23,65,100,58,160,6,42,16,146,35,117,163,67,98,79,156,61,131,101,73,1,27,40,12,22,165,126,164,18,33,122,77,10,66,128,59,11,173,24,153,140,70,149,85,104,112,151,84,13,127,75,108,161,136,97,44,82,47,37,38,113,74,7,87,154,68,166,45,29,133,116,9,15,25,139,62,83,2,137,17,110,171,119,46,89,148,49,118,72,26,5,39,120,19,93,69,31,114,48,92,170,53,64,159,105,50,103,167